<number of tasks>
100

<cycle time>
1000

<order strength>
0.596


<task times>
1 144
2 283
3 441
4 269
5 140
6 238
7 261
8 133
9 126
10 105
11 117
12 54
13 138
14 192
15 420
16 194
17 513
18 285
19 105
20 315
21 187
22 88
23 123
24 264
25 122
26 159
27 515
28 165
29 212
30 236
31 123
32 108
33 168
34 463
35 224
36 87
37 29
38 41
39 164
40 202
41 232
42 173
43 96
44 173
45 64
46 264
47 457
48 134
49 84
50 46
51 224
52 77
53 170
54 96
55 539
56 121
57 314
58 198
59 152
60 290
61 337
62 278
63 223
64 135
65 360
66 494
67 134
68 31
69 79
70 77
71 182
72 146
73 300
74 226
75 51
76 286
77 120
78 318
79 448
80 118
81 210
82 522
83 60
84 188
85 243
86 53
87 513
88 260
89 310
90 155
91 348
92 134
93 204
94 127
95 184
96 75
97 20
98 388
99 95
100 274

<precedence relations>
1,69
2,69
3,39
4,17
5,9
5,12
5,15
6,10
7,10
7,11
7,13
8,11
9,39
10,17
11,17
12,17
13,14
13,15
13,16
13,18
13,19
13,20
13,32
14,69
15,69
16,39
17,21
17,22
17,23
17,24
17,25
17,26
17,27
17,28
17,30
19,29
19,57
19,60
19,83
20,28
20,31
20,34
22,58
23,31
23,32
23,38
24,31
24,32
25,33
25,43
26,36
26,45
26,57
27,51
27,61
28,58
29,54
30,34
30,35
30,54
30,61
31,39
32,39
33,58
34,37
34,40
34,42
34,68
35,41
35,68
36,38
36,43
36,44
36,55
36,60
37,69
38,90
39,46
39,47
39,48
39,49
39,51
41,51
41,52
42,45
42,50
42,53
43,50
44,58
44,61
44,68
45,69
46,69
47,53
47,55
47,56
48,52
48,54
48,60
49,53
49,59
49,60
50,52
50,58
51,56
52,69
53,58
54,58
55,59
55,70
56,57
56,58
56,60
56,84
57,90
58,62
58,63
58,64
58,65
58,66
58,67
58,79
59,61
59,68
60,92
61,69
62,87
63,70
64,87
65,70
65,71
66,80
67,85
69,72
69,73
69,74
69,75
69,76
69,77
69,78
69,79
69,80
70,80
71,90
72,82
73,81
73,82
74,81
74,82
74,83
75,83
77,81
79,90
80,81
81,85
82,85
83,84
84,90
85,86
85,87
85,88
85,89
86,90
87,94
88,93
89,91
89,92
90,95
90,96
90,97
90,98
90,99
90,100

<end>
